unsat
( c13174
  c13182
  c13183
  c13197
  c13203
  c13206
  c13213
  c13222
  c13223
  c13224
  c13225
  c13229
  c13232
  c13236
  c13251
  c13343
  c13370
  c13371
  c13373
  c13384
  c1997
  c2568
  c2579
  c2593
  c2610
  c4609
  c4683
  c4725
  c4727
  c4729
  c4745
  c4759
  c4760
  c4761
  c4770
  c4773
  c4777
  c4780
  c5200
  c5233
  c5572
  c5685
  c5779
  c5796
  c5808
  c6274
  c6687
  c6698
  c6720
  c6739
  c7493
  c7501
  c7749
  c8697
  c8709
  c8716
  c8723
  c9586
  c9597
  c9604 )
